p cnf 15 47
1 2 3 0
4 5 6 0
7 8 9 0
10 11 12 0
13 14 15 0
-1 -4 0
-2 -5 0
-3 -6 0
-7 -4 0
-8 -5 0
-9 -6 0
-1 -10 0
-2 -11 0
-3 -12 0
-7 -13 0
-8 -14 0
-9 -15 0
-10 -13 0
-11 -14 0
-12 -15 0
-1 -2 0
-1 -3 0
-2 -3 0
-4 -5 0
-4 -6 0
-5 -6 0
-7 -8 0
-7 -9 0
-8 -9 0
-10 -11 0
-10 -12 0
-11 -12 0
-13 -14 0
-13 -15 0
-14 -15 0
-8 -1 13 0
-9 -1 13 0
-7 -2 14 0
-9 -2 14 0
-7 -3 15 0
-8 -3 15 0
-11 -4 13 0
-12 -4 13 0
-10 -5 14 0
-12 -5 14 0
-10 -6 15 0
-11 -6 15 0
